c Generated map
c Size: 9 * 9, weights in range: 1 to 10, walls: True, with ratio 0.05
c dim 2 of 8
c
p sp 81 129
c graph contains 81 nodes and 129 arcs
c
a 1 10 3
a 10 1 3
a 1 2 2
a 2 1 2
a 2 11 5
a 11 2 5
a 2 3 3
a 3 2 3
a 3 12 2
a 12 3 2
a 3 4 6
a 4 3 6
a 4 13 4
a 13 4 4
a 4 5 4
a 5 4 4
a 5 14 7
a 14 5 7
a 5 6 7
a 6 5 7
a 6 15 10
a 15 6 10
a 6 7 1
a 7 6 1
a 7 16 10
a 16 7 10
a 7 8 10
a 8 7 10
a 8 17 10
a 17 8 10
a 8 9 7
a 9 8 7
a 9 18 6
a 18 9 6
a 10 19 4
a 19 10 4
a 10 11 10
a 11 10 10
a 11 20 5
a 20 11 5
a 11 12 8
a 12 11 8
a 12 21 10
a 21 12 10
a 12 13 10
a 13 12 10
a 13 22 6
a 22 13 6
a 13 14 6
a 14 13 6
a 14 23 1
a 23 14 1
a 14 15 5
a 15 14 5
a 15 24 10
a 24 15 10
a 15 16 9
a 16 15 9
a 16 25 9
a 25 16 9
a 16 17 6
a 17 16 6
a 17 18 9
a 18 17 9
a 18 27 9
a 27 18 9
a 19 20 7
a 20 19 7
a 20 29 8
a 29 20 8
a 20 21 2
a 21 20 2
a 21 30 2
a 30 21 2
a 21 22 2
a 22 21 2
a 22 31 2
a 31 22 2
a 22 23 9
a 23 22 9
a 23 32 5
a 32 23 5
a 23 24 10
a 24 23 10
a 24 33 10
a 33 24 10
a 24 25 1
a 25 24 1
a 25 34 8
a 34 25 8
a 27 36 9
a 36 27 9
a 29 38 2
a 38 29 2
a 29 30 7
a 30 29 7
a 30 39 7
a 39 30 7
a 30 31 2
a 31 30 2
a 31 40 10
a 40 31 10
a 31 32 7
a 32 31 7
a 32 41 6
a 41 32 6
a 32 33 7
a 33 32 7
a 33 34 4
a 34 33 4
a 34 43 7
a 43 34 7
a 34 35 7
a 35 34 7
a 35 44 7
a 44 35 7
a 35 36 8
a 36 35 8
a 36 45 3
a 45 36 3
a 37 46 3
a 46 37 3
a 37 38 1
a 38 37 1
a 38 47 5
a 47 38 5
a 38 39 9
a 39 38 9
a 39 48 3
a 48 39 3
a 39 40 7
a 40 39 7
a 40 49 10
a 49 40 10
a 40 41 4
a 41 40 4
a 41 50 10
a 50 41 10
a 43 52 3
a 52 43 3
a 43 44 4
a 44 43 4
a 44 45 8
a 45 44 8
a 45 54 6
a 54 45 6
a 46 55 2
a 55 46 2
a 46 47 10
a 47 46 10
a 47 56 6
a 56 47 6
a 47 48 9
a 48 47 9
a 48 57 10
a 57 48 10
a 48 49 9
a 49 48 9
a 49 58 2
a 58 49 2
a 49 50 3
a 50 49 3
a 50 59 5
a 59 50 5
a 50 51 3
a 51 50 3
a 51 60 4
a 60 51 4
a 51 52 7
a 52 51 7
a 52 61 1
a 61 52 1
a 54 63 9
a 63 54 9
a 55 64 8
a 64 55 8
a 55 56 1
a 56 55 1
a 56 65 6
a 65 56 6
a 56 57 2
a 57 56 2
a 57 66 10
a 66 57 10
a 57 58 7
a 58 57 7
a 58 67 6
a 67 58 6
a 58 59 7
a 59 58 7
a 59 68 4
a 68 59 4
a 59 60 10
a 60 59 10
a 60 69 9
a 69 60 9
a 60 61 7
a 61 60 7
a 61 70 7
a 70 61 7
a 61 62 5
a 62 61 5
a 62 71 6
a 71 62 6
a 62 63 3
a 63 62 3
a 63 72 8
a 72 63 8
a 64 73 9
a 73 64 9
a 64 65 8
a 65 64 8
a 65 74 10
a 74 65 10
a 65 66 7
a 66 65 7
a 66 75 8
a 75 66 8
a 66 67 6
a 67 66 6
a 67 76 3
a 76 67 3
a 67 68 3
a 68 67 3
a 68 77 1
a 77 68 1
a 68 69 5
a 69 68 5
a 69 78 8
a 78 69 8
a 69 70 6
a 70 69 6
a 70 79 4
a 79 70 4
a 70 71 1
a 71 70 1
a 71 80 2
a 80 71 2
a 71 72 6
a 72 71 6
a 72 81 9
a 81 72 9
a 73 74 3
a 74 73 3
a 74 75 10
a 75 74 10
a 75 76 4
a 76 75 4
a 76 77 8
a 77 76 8
a 77 78 2
a 78 77 2
a 78 79 2
a 79 78 2
a 79 80 8
a 80 79 8
a 80 81 6
a 81 80 6
